
Gurobi 10.0.1 (linux64) logging started Sun Nov 26 15:39:46 2023

Set parameter LogFile to value "ArtificialInstance/ExperimentV2/S3T3K1/AdRo/gurobiSpRo48.txt"
Gurobi Optimizer version 10.0.1 build v10.0.1rc0 (linux64)

CPU model: AMD EPYC 7H12 64-Core Processor, instruction set [SSE2|AVX|AVX2]
Thread count: 128 physical cores, 128 logical processors, using up to 32 threads

Academic license 656792 - for non-commercial use only - registered to b.___@student.vu.nl
Optimize a model with 3055 rows, 2885 columns and 11417 nonzeros
Model fingerprint: 0xf5f39307
Variable types: 1 continuous, 2884 integer (2884 binary)
Coefficient statistics:
  Matrix range     [1e+00, 4e+01]
  Objective range  [1e+00, 2e+01]
  Bounds range     [1e+00, 1e+00]
  RHS range        [1e+00, 1e+00]
Presolve removed 1218 rows and 942 columns
Presolve time: 0.03s
Presolved: 1837 rows, 1943 columns, 7487 nonzeros
Variable types: 1 continuous, 1942 integer (1942 binary)

Root relaxation: objective 6.209054e+01, 621 iterations, 0.01 seconds (0.01 work units)

    Nodes    |    Current Node    |     Objective Bounds      |     Work
 Expl Unexpl |  Obj  Depth IntInf | Incumbent    BestBd   Gap | It/Node Time

     0     0   62.09054    0    7          -   62.09054      -     -    0s
H    0     0                     101.5446070   62.09054  38.9%     -    0s
H    0     0                      67.4819672   62.09054  7.99%     -    0s
H    0     0                      62.0905408   62.09054  0.00%     -    0s
     0     0   62.09054    0    7   62.09054   62.09054  0.00%     -    0s

Explored 1 nodes (621 simplex iterations) in 0.08 seconds (0.04 work units)
Thread count was 32 (of 128 available processors)

Solution count 3: 62.0905 67.482 101.545 

Optimal solution found (tolerance 1.00e-04)
Best objective 6.209054079457e+01, best bound 6.209054079457e+01, gap 0.0000%
